GLPSOL--GLPK LP/MIP Solver 5.0
Parameter(s) specified in the command line:
 --lp ../modeles/4_109.lp --log 4_109.log
Reading problem data from '../modeles/4_109.lp'...
453 rows, 880 columns, 3072 non-zeros
436 integer variables, all of which are binary
1343 lines were read
GLPK Integer Optimizer 5.0
453 rows, 880 columns, 3072 non-zeros
436 integer variables, all of which are binary
Preprocessing...
424 constraint coefficient(s) were reduced
453 rows, 876 columns, 3068 non-zeros
436 integer variables, all of which are binary
Scaling...
 A: min|aij| =  3.367e-04  max|aij| =  4.000e+00  ratio =  1.188e+04
GM: min|aij| =  9.578e-02  max|aij| =  1.044e+01  ratio =  1.090e+02
EQ: min|aij| =  9.174e-03  max|aij| =  1.000e+00  ratio =  1.090e+02
2N: min|aij| =  7.812e-03  max|aij| =  1.725e+00  ratio =  2.208e+02
Constructing initial basis...
Size of triangular part is 453
Solving LP relaxation...
GLPK Simplex Optimizer 5.0
453 rows, 876 columns, 3068 non-zeros
      0: obj =   8.000000000e+00 inf =   1.950e+01 (9)
     35: obj =   4.993686869e-01 inf =   0.000e+00 (0)
*   165: obj =  -1.999426606e+00 inf =   6.243e-16 (0)
OPTIMAL LP SOLUTION FOUND
Integer optimization begins...
Long-step dual simplex will be used
+   165: mip =     not found yet >=              -inf        (1; 0)
+   236: >>>>>  -1.999426606e+00 >=  -1.999426606e+00 < 0.1% (72; 0)
+   236: mip =  -1.999426606e+00 >=     tree is empty   0.0% (0; 143)
INTEGER OPTIMAL SOLUTION FOUND
Time used:   0.0 secs
Memory used: 1.3 Mb (1395366 bytes)
